33D32945 STP File, STP Format Version 1.0

SECTION Comments
Name "shell_n14_d2_s48"
Problem "Euclidean Steiner Tree Problem"
Remark "Generated with STPGenerator. 2 dimensions."
END

SECTION Graph
Nodes 14
END

SECTION Coordinates
DD 0 0.6930615247 -0.7208784384
DD 1 0.9721574671 0.2343285283
DD 2 -0.4747071583 -0.8801438029
DD 3 0.2767571690 -0.9609398885
DD 4 -0.3114067723 0.9502767082
DD 5 -0.9228673804 0.3851179017
DD 6 -0.7879789727 0.6157021509
DD 7 -0.1807894424 -0.9835218236
DD 8 0.5749093309 0.8182171235
DD 9 0.9891514827 -0.1468990958
DD 10 -0.0398264786 0.9992066111
DD 11 -0.2990183383 0.9542473649
DD 12 -0.0614781637 -0.9981084287
DD 13 -0.9951285573 -0.0985857719
END
